
<<< setup

Version identifier: 22.1.1.0 | 2022-11-27 | 9160aff4d
Tried aggregator 1 time.
LP Presolve eliminated 1181 rows and 1154 columns.
Aggregator did 2 substitutions.
Reduced LP has 1 rows, 4 columns, and 4 nonzeros.
Presolve time = 0.00 sec. (1.68 ticks)

Iteration log . . .
Iteration:     1   Dual infeasibility =             0.000000
Iteration:     2   Dual objective     =           105.453776
main returns 0

<<< main


<<< done

